; benchmark generated from python API
(set-info :status unknown)
(declare-datatypes ((RealState 0)) (((RMk1 (rval1 Real)) (RMk2 (rval2 Real)))))
 (assert
 (forall ((|v17:0| Real) )(forall ((|v16:1| Real) )(forall ((|v15:2| Real) )(forall ((|v14:3| Real) )(forall ((|v13:4| Real) )(forall ((|v12:5| Real) )(exists ((|v11:6_st| RealState) (val!8388 Real) )(exists ((|v10:7_st| RealState) (val!8389 Real) )(exists ((|v9:8_st| RealState) (val!8390 Real) )(exists ((|v8:9_st| RealState) (val!8391 Real) )(exists ((|v7:10_st| RealState) (val!8392 Real) )(exists ((|v6:11_st| RealState) (val!8393 Real) )(forall ((|v5:12| Real) )(forall ((|v4:13| Real) )(forall ((|v3:14| Real) )(forall ((|v2:15| Real) )(forall ((|v1:16| Real) )(forall ((|v0:17| Real) )(let ((?x169 (- 5.0)))
 (let ((?x2044 (+ (+ (+ (* (- 3.0) |v12:5|) (* 0.0 |v0:17|)) (* (- 17.0) |v1:16|)) (* 11.0 |v16:1|))))
 (and (not (= |v11:6_st| (RMk1 val!8388))) (not (= |v10:7_st| (RMk1 val!8389))) (not (= |v9:8_st| (RMk1 val!8390))) (not (= |v8:9_st| (RMk1 val!8391))) (not (= |v7:10_st| (RMk1 val!8392))) (not (= |v6:11_st| (RMk1 val!8393))) (<= ?x2044 ?x169)))))
 )
 )
 )
 )
 )
 )
 )
 )
 )
 )
 )
 )
 )
 )
 )
 )
 )
 )
(check-sat)
